c ---- [ banner ] ------------------------------------------------------------
c
c KISSAT SAT Solver
c Copyright (c) 2019-2020 Armin Biere JKU Linz
c 
c Version 1.0.3 63226afdea40356bca908df783193895ae46ca46
c gcc (Ubuntu 9.4.0-1ubuntu1~20.04.1) 9.4.0 -g -W -Wall -O3 -DNEMBEDDED -DNDEBUG -DPREF_HEURISTIC -DPRINT_LATENCY -DNMETRICS -DNSTATISTICS
c Thu Apr 6 12:30:34 IST 2023 Linux Karthikeya 5.15.0-69-generic x86_64
c
c ---- [ parsing ] -----------------------------------------------------------
c
c opened and reading DIMACS file:
c 
c   ../../../benchmark_instances_2022/7993005e2949524b293b216ed9c65126-cfi-rigid-s2-0064-03-or_2_shuffle_all.cnf
c 
c parsed 'p cnf 8192 15169408' header
c closing input after reading 193282474 bytes (184 MB)
c finished parsing after 2.64 seconds
c
c ---- [ solving ] -----------------------------------------------------------
c
c  seconds  reductions redundant irredundant
c          MB   restarts    trail        variables
c           level  conflicts   glue           remaining
c
c *  2.64 192 0  0  0   0   0 0% 0 15169408 8192 100%
c {  2.64 192 0  0  0   0   0 0% 0 15169408 8192 100%
c -  2.84 196 27  1 28 300 245 85% 4 15169408 8192 100%
c -  3.07 202 31  2 104 900 787 86% 4 15169408 8192 100%
c }  3.08 203 34  2 140 1001 887 85% 6 15169408 8192 100%
c [  3.08 203 0  2 140 1001 887 0% 0 15169408 8192 100%
c O  3.35 203 63  2 140 1002 888 94% 5 15169408 8192 100%
c ]  3.45 205 351  2 140 1486 1350 79% 104 15169408 8192 100%
c {  3.45 205 34  2 140 1486 1350 85% 6 15169408 8192 100%
c -  3.70 207 36  3 226 1800 1175 85% 6 15169408 8192 100%
c -  4.07 220 37  4 437 3000 1817 84% 7 15169408 8192 100%
c I  4.07 220 37  4 437 3004 1821 84% 7 15169408 8192 100%
c }  4.12 220 36  4 445 3486 2287 84% 7 15169408 8192 100%
c [  4.12 220 351  4 445 3486 2287 79% 104 15169408 8192 100%
c -  4.56 223 574  5 445 4500 2213 80% 161 15169408 8192 100%
c ]  4.71 224 1263  5 446 4921 2563 83% 198 15169408 8192 100%
c {  4.71 224 36  5 446 4921 2563 84% 7 15169408 8192 100%
c B  4.99 227 35  5 512 6005 3594 85% 7 15169408 8192 100%
c -  5.21 229 34  6 515 6300 2718 85% 6 15169408 8192 100%
c -  5.75 247 35  7 890 8400 3803 84% 7 15169408 8192 100%
c
c  seconds   reductions   redundant   irredundant
c          MB    restarts        trail        variables
c           level    conflicts      glue           remaining
c
c i  5.80 247 35  7 942 8707 4047 84% 8 15169408 8191 100%
c }  5.93 247 42  7 992 9921 5211 85% 7 15169408 8191 100%
c [  5.93 247 1263  7 992 9921 5211 83% 198 15169408 8191 100%
c W  7.93 247 1180  7 992 10006 5255 83% 187 15165716 8191 100%
c -  8.38 248 935  8 992 10800 4302 81% 178 15165716 8191 100%
c ]  9.22 251 561  8 994 13396 6650 81% 127 15165716 8191 100%
c {  9.22 251 42  8 994 13396 6650 85% 7 15165716 8191 100%
c -  9.61 244 43  9 1022 13501 4084 85% 7 15165716 8191 100%
c O 10.00 245 42  9 1144 15008 5544 85% 7 15165716 8191 100%
c - 10.46 265 42 10 1241 16501 5340 85% 7 15165716 8191 100%
c i 10.52 271 43 10 1282 16713 5532 85% 7 15165716 8190 100%
c - 11.06 295 54 11 1452 19801 7296 85% 8 15161978 8190 100%
c B 11.26 295 99 11 1518 21270 8140 84% 11 15161978 8190 100%
c } 11.52 298 109 11 1698 23396 10165 84% 17 15161978 8190 100%
c [ 11.52 298 561 11 1698 23396 10165 81% 127 15161978 8190 100%
c - 11.70 298 561 12 1698 23401 8007 81% 127 15161978 8190 100%
c - 12.68 302 980 13 1700 27301 7225 78% 183 15161978 8190 100%
c W 14.22 302 1022 13 1701 28271 8133 78% 215 15161978 8190 100%
c u 14.67 303 952 13 1702 29405 9078 78% 206 15161978 8190 100%
c v 14.80 303 952 13 1702 29405 9078 78% 206 15161978 8190 100%
c
c  seconds    reductions     redundant     irredundant
c          MB      restarts         trail          variables
c            level      conflicts       glue            remaining
c
c ] 14.85 303 939 13 1702 29653 9285 78% 203 15161978 8190 100%
c { 14.85 303 109 13 1702 29653 9285 84% 17 15161978 8190 100%
c - 15.27 303 102 14 1714 31501 7457 84% 16 15161978 8190 100%
c - 16.37 369 94 15 1902 36001 9570 84% 15 15161978 8190 100%
c I 16.41 374 93 15 1906 36273 9837 84% 15 15161978 8190 100%
c i 16.98 395 84 15 2016 40445 13856 84% 14 15161978 8189 100%
c - 17.27 395 83 16 2019 40801 11828 84% 13 15158287 8189 100%
c i 17.58 395 81 16 2101 43006 13904 84% 13 15158287 8188 100%
c B 17.92 396 83 16 2273 45274 16091 84% 16 15158287 8188 100%
c - 18.23 397 83 17 2286 45901 13396 84% 16 15154595 8188 100%
c ^ 18.59 397 83 17 2286 46250 13736 84% 16 15154595 8188 100%
c } 18.68 397 83 17 2288 46653 14112 84% 15 15154595 8188 100%
c [ 18.68 397 939 17 2288 46653 14112 78% 203 15154595 8188 100%
c u 19.55 397 857 17 2290 49005 15986 78% 184 15154595 8188 100%
c v 19.72 398 857 17 2290 49005 15986 78% 184 15154595 8188 100%
c - 20.62 402 888 18 2291 51302 12630 78% 195 15154595 8188 100%
c caught signal 2 (SIGINT)
c
c ---- [ profiling ] ---------------------------------------------------------
c
c          13.03   62.47 %  search
c           7.70   36.89 %  focused
c           5.34   25.58 %  stable
c           5.19   24.88 %  simplify
c           4.10   19.65 %  reduce
c           3.11   14.92 %  walking
c           2.64   12.64 %  parse
c           0.90    4.31 %  probe
c           0.83    3.99 %  autarky
c           0.56    2.68 %  vivify
c           0.35    1.67 %  eliminate
c           0.16    0.75 %  transitive
c           0.11    0.54 %  failed
c           0.07    0.35 %  ternary
c =============================================
c          20.87  100.00 %  total
c
c ---- [ statistics ] --------------------------------------------------------
c
latency 0 0.000000
c conflicts:                            51583             2472.11 per second
c decisions:                           643671               12.48 per conflict
c propagations:                      32964762          1579835    per second
c reductions:                              18             2866    interval
c rephased:                                 9             5731    interval
c restarts:                              2291               22.52 interval
c MAB stats : 6 5 
c
c ---- [ resources ] ---------------------------------------------------------
c
c maximum-resident-set-size:        619843584 bytes        591 MB
c process-time:                            20s              20.87 seconds
c raising signal 2 (SIGINT)
